n = 15;
m = 61;

max_len = 5;
word_lens = [ 4, 4, 4, 4, 4, 4, 4, 4, 4, 4, 4, 4, 4, 4, 4, 4, 4, 4, 4, 4, 4, 4, 4, 4, 4, 4, 4, 4, 4, 4, 4, 4, 4, 4, 4, 4, 4, 4, 4, 5, 5, 5, 5, 5, 5, 5, 5, 5, 5, 5, 5, 5, 5, 5, 5, 5, 5, 5, 5, 5, 5 ];
words = [| D, U, T, Y, E | T, O, I, L, E | H, I, R, E, E | M, O, R, N, E | W, E, E, K, E | S, O, U, R, E | I, S, H, A, E | P, L, O, W, E | D, A, Y, S, E | B, O, O, K, E | N, O, O, N, E | P, O, S, T, E | L, I, N, E, E | L, I, C, K, E | M, O, O, N, E | H, E, R, O, E | F, O, R, M, E | W, A, S, H, E | D, E, A, L, E | T, A, S, K, E | L, A, T, E, E | L, A, S, T, E | S, P, O, T, E | W, H, A, T, E | D, U, S, K, E | B, U, L, L, E | G, A, M, E, E | D, I, E, L, E | P, L, A, Y, E | W, O, R, K, E | E, V, E, N, E | L, A, N, D, E | M, O, L, D, E | T, U, R, N, E | C, R, O, P, E | H, E, L, P, E | C, A, M, E, E | M, A, K, E, E | H, E, L, D, E | K, N, E, A, D | C, R, A, F, T | S, P, O, R, T | S, T, I, N, T | B, E, R, T, H | S, H, A, P, E | C, H, O, R, E | A, P, P, L, Y | S, O, L, V, E | T, O, D, A, Y | C, H, E, A, T | F, O, R, G, E | C, A, P, E, R | P, L, A, C, E | T, R, A, D, E | M, O, U, L, D | B, R, I, N, G | W, R, E, A, K | N, I, G, H, T | M, O, N, E, Y | S, T, U, D, Y | L, A, B, O, R |];

pos_var_strat = first_fail;
pos_val_strat = indomain_median;
